QBPP_HJ-_40_025_20_1
40 106 1733
14 27 42 32 9 38 47 17 40 31 44 32 33 1 4 33 37 2 20 2 38 29 46 49 13 35 43 9 20 5 23 35 42 32 3 8 40 5 39 32
     0     0     0   -13     0     0     0     0   -72   -35     0     0     0     0     0     0     0     0     0     0     0     0     0    -1     0   -97     0     0     0     0     0   -32   -52     0     0     0     0    -1     0     0
     0     0     0     0     0     0     0     0   -74   -70     0     0   -71   -52     0     0     0   -88     0     0   -34     0     0     0   -38     0   -12     0     0     0     0     0    -5   -11   -34     0     0     0     0    -8
     0     0     0   -17     0     0     0    -4   -89   -36     0   -11     0     0     0     0   -68   -53     0     0     0     0     0   -25    -3     0     0   -80     0     0     0     0     0     0   -26   -15     0    -4     0     0
   -13     0   -17     0     0     0   -47     0     0     0     0     0   -83   -35     0     0     0     0     0     0   -11   -80    -9     0     0     0     0   -93     0     0     0     0     0   -92   -45     0     0   -38    -8     0
     0     0     0     0     0   -71     0     0     0     0     0   -52     0     0     0     0     0     0   -23     0     0     0     0     0     0     0     0     0     0     0    -6     0     0     0     0     0     0     0   -78     0
     0     0     0     0   -71     0   -21     0    -9     0     0     0     0     0     0     0     0   -51   -21   -76     0     0     0     0     0     0   -40     0     0     0     0   -86     0   -76   -24   -98     0     0     0     0
     0     0     0   -47     0   -21     0   -70     0     0   -98     0     0     0     0   -25    -1     0   -53     0     0     0     0     0     0     0   -56     0   -52     0     0    -1     0   -35   -91   -84     0     0     0     0
     0     0    -4     0     0     0   -70     0     0     0     0     0     0     0     0     0     0     0     0     0     0     0     0     0     0     0     0     0     0     0    -9     0     0     0     0     0     0     0     0     0
   -72   -74   -89     0     0    -9     0     0     0   -15   -93     0     0     0     0     0     0    -4     0     0    -3     0     0     0     0     0   -45     0     0     0   -92     0     0   -10     0     0     0     0   -86     0
   -35   -70   -36     0     0     0     0     0   -15     0     0     0     0   -89   -26   -69     0     0     0     0   -47   -56     0     0     0     0   -34     0     0   -56     0     0     0     0   -13     0     0     0     0     0
     0     0     0     0     0     0   -98     0   -93     0     0     0    -3     0    -1     0     0     0   -19     0     0     0     0  -100     0     0     0     0     0     0     0     0   -61   -99     0   -44     0     0     0   -33
     0     0   -11     0   -52     0     0     0     0     0     0     0     0     0     0     0     0     0     0   -51     0    -9     0     0     0     0     0   -98     0     0   -71     0   -56   -83     0   -25     0     0     0     0
     0   -71     0   -83     0     0     0     0     0     0    -3     0     0     0     0     0     0     0   -38  -100     0     0     0     0     0     0     0     0     0     0     0     0     0     0     0     0     0     0   -32     0
     0   -52     0   -35     0     0     0     0     0   -89     0     0     0     0   -51     0   -39     0     0     0     0   -72     0     0     0     0     0     0     0     0     0     0     0     0     0     0     0     0     0   -96
     0     0     0     0     0     0     0     0     0   -26    -1     0     0   -51     0   -65     0     0     0     0   -23   -57     0     0     0     0    -5     0     0     0     0   -10     0     0     0     0   -50     0     0     0
     0     0     0     0     0     0   -25     0     0   -69     0     0     0     0   -65     0     0   -60     0     0   -22     0   -24     0     0     0     0     0     0     0   -79     0     0     0     0     0     0     0     0     0
     0     0   -68     0     0     0    -1     0     0     0     0     0     0   -39     0     0     0     0     0     0   -76     0     0     0     0     0     0     0     0     0     0     0   -64   -56   -64     0     0     0     0   -50
     0   -88   -53     0     0   -51     0     0    -4     0     0     0     0     0     0   -60     0     0     0     0     0     0     0     0     0     0     0     0     0     0     0     0   -82     0   -98     0     0   -92     0     0
     0     0     0     0   -23   -21   -53     0     0     0   -19     0   -38     0     0     0     0     0     0     0     0     0     0     0   -22     0   -59     0     0     0     0     0     0     0     0     0     0    -4     0     0
     0     0     0     0     0   -76     0     0     0     0     0   -51  -100     0     0     0     0     0     0     0     0    -9     0   -90     0     0     0     0     0     0     0     0     0     0     0     0     0     0     0   -97
     0   -34     0   -11     0     0     0     0    -3   -47     0     0     0     0   -23   -22   -76     0     0     0     0     0     0     0     0     0     0     0     0   -63     0     0   -97     0     0     0     0     0     0     0
     0     0     0   -80     0     0     0     0     0   -56     0    -9     0   -72   -57     0     0     0     0    -9     0     0     0   -30   -70   -16     0     0     0   -92   -90   -84     0     0   -36     0     0   -48     0     0
     0     0     0    -9     0     0     0     0     0     0     0     0     0     0     0   -24     0     0     0     0     0     0     0     0     0     0   -20     0   -42     0     0   -87     0     0     0     0     0     0     0     0
    -1     0   -25     0     0     0     0     0     0     0  -100     0     0     0     0     0     0     0     0   -90     0   -30     0     0     0     0     0   -94     0     0     0     0     0     0   -56   -22     0     0     0     0
     0   -38    -3     0     0     0     0     0     0     0     0     0     0     0     0     0     0     0   -22     0     0   -70     0     0     0     0     0     0     0     0   -31     0     0     0     0   -51   -80     0     0     0
   -97     0     0     0     0     0     0     0     0     0     0     0     0     0     0     0     0     0     0     0     0   -16     0     0     0     0     0     0     0     0     0     0    -3     0   -71     0     0   -47   -54   -30
     0   -12     0     0     0   -40   -56     0   -45   -34     0     0     0     0    -5     0     0     0   -59     0     0     0   -20     0     0     0     0     0   -71     0     0     0     0     0     0     0   -34     0     0     0
     0     0   -80   -93     0     0     0     0     0     0     0   -98     0     0     0     0     0     0     0     0     0     0     0   -94     0     0     0     0     0     0   -93     0     0     0   -82     0     0     0     0   -57
     0     0     0     0     0     0   -52     0     0     0     0     0     0     0     0     0     0     0     0     0     0     0   -42     0     0     0   -71     0     0   -81     0   -68     0   -44     0     0     0     0     0     0
     0     0     0     0     0     0     0     0     0   -56     0     0     0     0     0     0     0     0     0     0   -63   -92     0     0     0     0     0     0   -81     0     0   -26     0   -12     0     0     0    -9     0     0
     0     0     0     0    -6     0     0    -9   -92     0     0   -71     0     0     0   -79     0     0     0     0     0   -90     0     0   -31     0     0   -93     0     0     0     0     0     0     0     0     0     0     0     0
   -32     0     0     0     0   -86    -1     0     0     0     0     0     0     0   -10     0     0     0     0     0     0   -84   -87     0     0     0     0     0   -68   -26     0     0     0     0     0     0     0     0   -44     0
   -52    -5     0     0     0     0     0     0     0     0   -61   -56     0     0     0     0   -64   -82     0     0   -97     0     0     0     0    -3     0     0     0     0     0     0     0     0     0     0     0   -72     0     0
     0   -11     0   -92     0   -76   -35     0   -10     0   -99   -83     0     0     0     0   -56     0     0     0     0     0     0     0     0     0     0     0   -44   -12     0     0     0     0     0     0     0     0   -22   -43
     0   -34   -26   -45     0   -24   -91     0     0   -13     0     0     0     0     0     0   -64   -98     0     0     0   -36     0   -56     0   -71     0   -82     0     0     0     0     0     0     0     0     0     0     0     0
     0     0   -15     0     0   -98   -84     0     0     0   -44   -25     0     0     0     0     0     0     0     0     0     0     0   -22   -51     0     0     0     0     0     0     0     0     0     0     0     0   -24   -96    -9
     0     0     0     0     0     0     0     0     0     0     0     0     0     0   -50     0     0     0     0     0     0     0     0     0   -80     0   -34     0     0     0     0     0     0     0     0     0     0     0   -69   -56
    -1     0    -4   -38     0     0     0     0     0     0     0     0     0     0     0     0     0   -92    -4     0     0   -48     0     0     0   -47     0     0     0    -9     0     0   -72     0     0   -24     0     0     0     0
     0     0     0    -8   -78     0     0     0   -86     0     0     0   -32     0     0     0     0     0     0     0     0     0     0     0     0   -54     0     0     0     0     0   -44     0   -22     0   -96   -69     0     0   -82
     0    -8     0     0     0     0     0     0     0     0   -33     0     0   -96     0     0   -50     0     0   -97     0     0     0     0     0   -30     0   -57     0     0     0     0     0   -43     0    -9   -56     0   -82     0
